Maximize
  0.00182641953208494 Z_94_1_0 + 0.00678385488563016 Z_94_1_1
   + 0.6665264843351225 Z_94_1_2 + 0.0469078676033094 Z_94_1_3
   + 0.1068875918920644 Z_94_0_0 + 0.029515225319561 Z_94_0_1
   + 0.045414240900211 Z_94_0_2 + 0.0732363184983176 Z_94_0_3
   + 0.0182148739648945 Z_330_0_0 + 0.0040549475275525 Z_330_0_1
   + 0.0362100805567155 Z_330_0_2 + 0.8072904289971244 Z_330_0_3
   + 0.00710916497290585 Z_59_0_0 + 0.00730878228050379 Z_59_0_1
   + 0.3873063656903742 Z_59_0_2 + 0.7895391310202446 Z_59_0_3
   + 0.00465484105561117 Z_266_0_0 + 0.00674680472602365 Z_266_0_1
   + 0.2431462189380956 Z_266_0_2 + 0.7867106265587606 Z_266_0_3
   + 0.00425545410406075 Z_541_0_0 + 0.0102605002967292 Z_541_0_1
   + 0.352027253865597 Z_541_0_2 + 0.7325470035329105 Z_541_0_3
   + 0.00172606710256462 Z_164_0_0 + 0.0108876038312699 Z_164_0_1
   + 0.6349944270592459 Z_164_0_2 + 0.5370285798402382 Z_164_0_3
   + 4.5923540652608174e-04 Z_232_0_0 + 0.0222895892805003 Z_232_0_1
   + 0.1991623551002693 Z_232_0_2 + 0.0136755913467674 Z_232_0_3
   + 0.00587099971826985 Z_290_0_0 + 0.0125326942590886 Z_290_0_1
   + 0.328949472069973 Z_290_0_2 + 0.758952517416582 Z_290_0_3
   + 0.00367264926338913 Z_604_0_0 + 0.0716662095858455 Z_604_0_1
   + 0.2066215237758747 Z_604_0_2 + 0.00943723821114906 Z_604_0_3
   + 0.0879029626356534 Z_9_0_0 + 0.0448905212787676 Z_9_0_1
   + 0.0421677090862463 Z_9_0_2 + 0.0765698714076561 Z_9_0_3
   + 0.00710916497290585 Z_150_0_0 + 0.00730878228050379 Z_150_0_1
   + 0.3873063656903742 Z_150_0_2 + 0.7895391310202446 Z_150_0_3 + [
   0.022388379538802 Z_94_1_0 * Z_330_0_0
   + 0.00798304642496698 Z_94_1_0 * Z_59_0_0
   + 2.2941976136839882e-04 Z_94_1_0 * Z_164_0_0
   + 0.00361027572165797 Z_94_1_0 * Z_290_0_0
   + 0.022388379538802 Z_94_1_1 * Z_330_0_1
   + 0.00798304642496698 Z_94_1_1 * Z_59_0_1
   + 2.2941976136839882e-04 Z_94_1_1 * Z_164_0_1
   + 0.00361027572165797 Z_94_1_1 * Z_290_0_1
   + 0.022388379538802 Z_94_1_2 * Z_330_0_2
   + 0.00798304642496698 Z_94_1_2 * Z_59_0_2
   + 2.2941976136839882e-04 Z_94_1_2 * Z_164_0_2
   + 0.00361027572165797 Z_94_1_2 * Z_290_0_2
   + 0.022388379538802 Z_94_1_3 * Z_330_0_3
   + 0.00798304642496698 Z_94_1_3 * Z_59_0_3
   + 2.2941976136839882e-04 Z_94_1_3 * Z_164_0_3
   + 0.00361027572165797 Z_94_1_3 * Z_290_0_3
   + 0.1306067299794985 Z_94_0_0 * Z_330_0_0
   + 0.0307483188455985 Z_94_0_0 * Z_59_0_0
   + 0.0135925710672653 Z_94_0_0 * Z_266_0_0
   + 0.0500144421617634 Z_94_0_0 * Z_541_0_0
   + 0.0329671121646319 Z_94_0_0 * Z_164_0_0
   + 0.0675510902438591 Z_94_0_0 * Z_290_0_0
   + 0.0329671121646319 Z_94_0_0 * Z_9_0_0
   + 0.0434906358605008 Z_94_0_0 * Z_150_0_0
   + 0.1306067299794985 Z_94_0_1 * Z_330_0_1
   + 0.0307483188455985 Z_94_0_1 * Z_59_0_1
   + 0.0135925710672653 Z_94_0_1 * Z_266_0_1
   + 0.0500144421617634 Z_94_0_1 * Z_541_0_1
   + 0.0329671121646319 Z_94_0_1 * Z_164_0_1
   + 0.0675510902438591 Z_94_0_1 * Z_290_0_1
   + 0.0329671121646319 Z_94_0_1 * Z_9_0_1
   + 0.0434906358605008 Z_94_0_1 * Z_150_0_1
   + 0.1306067299794985 Z_94_0_2 * Z_330_0_2
   + 0.0307483188455985 Z_94_0_2 * Z_59_0_2
   + 0.0135925710672653 Z_94_0_2 * Z_266_0_2
   + 0.0500144421617634 Z_94_0_2 * Z_541_0_2
   + 0.0329671121646319 Z_94_0_2 * Z_164_0_2
   + 0.0675510902438591 Z_94_0_2 * Z_290_0_2
   + 0.0329671121646319 Z_94_0_2 * Z_9_0_2
   + 0.0434906358605008 Z_94_0_2 * Z_150_0_2
   + 0.1306067299794985 Z_94_0_3 * Z_330_0_3
   + 0.0307483188455985 Z_94_0_3 * Z_59_0_3
   + 0.0135925710672653 Z_94_0_3 * Z_266_0_3
   + 0.0500144421617634 Z_94_0_3 * Z_541_0_3
   + 0.0329671121646319 Z_94_0_3 * Z_164_0_3
   + 0.0675510902438591 Z_94_0_3 * Z_290_0_3
   + 0.0329671121646319 Z_94_0_3 * Z_9_0_3
   + 0.0434906358605008 Z_94_0_3 * Z_150_0_3
   + 0.2034072890453862 Z_330_0_0 * Z_59_0_0
   + 0.1023880716566278 Z_330_0_0 * Z_266_0_0
   + 0.1985133419775667 Z_330_0_0 * Z_541_0_0
   + 0.0882579903552336 Z_330_0_0 * Z_164_0_0
   + 0.1466444756015319 Z_330_0_0 * Z_290_0_0
   + 0.0232157865902646 Z_330_0_0 * Z_9_0_0
   + 0.1752468114623179 Z_330_0_0 * Z_150_0_0
   + 0.2034072890453862 Z_330_0_1 * Z_59_0_1
   + 0.1023880716566278 Z_330_0_1 * Z_266_0_1
   + 0.1985133419775667 Z_330_0_1 * Z_541_0_1
   + 0.0882579903552336 Z_330_0_1 * Z_164_0_1
   + 0.1466444756015319 Z_330_0_1 * Z_290_0_1
   + 0.0232157865902646 Z_330_0_1 * Z_9_0_1
   + 0.1752468114623179 Z_330_0_1 * Z_150_0_1
   + 0.2034072890453862 Z_330_0_2 * Z_59_0_2
   + 0.1023880716566278 Z_330_0_2 * Z_266_0_2
   + 0.1985133419775667 Z_330_0_2 * Z_541_0_2
   + 0.0882579903552336 Z_330_0_2 * Z_164_0_2
   + 0.1466444756015319 Z_330_0_2 * Z_290_0_2
   + 0.0232157865902646 Z_330_0_2 * Z_9_0_2
   + 0.1752468114623179 Z_330_0_2 * Z_150_0_2
   + 0.2034072890453862 Z_330_0_3 * Z_59_0_3
   + 0.1023880716566278 Z_330_0_3 * Z_266_0_3
   + 0.1985133419775667 Z_330_0_3 * Z_541_0_3
   + 0.0882579903552336 Z_330_0_3 * Z_164_0_3
   + 0.1466444756015319 Z_330_0_3 * Z_290_0_3
   + 0.0232157865902646 Z_330_0_3 * Z_9_0_3
   + 0.1752468114623179 Z_330_0_3 * Z_150_0_3
   + 0.0761500937782859 Z_59_0_0 * Z_266_0_0
   + 0.1264861180156079 Z_59_0_0 * Z_541_0_0
   + 0.0895868090804778 Z_59_0_0 * Z_164_0_0
   + 0.1902905515303155 Z_59_0_0 * Z_290_0_0
   + 0.0597882400111866 Z_59_0_0 * Z_9_0_0
   + 0.2813033061748659 Z_59_0_0 * Z_150_0_0
   + 0.0761500937782859 Z_59_0_1 * Z_266_0_1
   + 0.1264861180156079 Z_59_0_1 * Z_541_0_1
   + 0.0895868090804778 Z_59_0_1 * Z_164_0_1
   + 0.1902905515303155 Z_59_0_1 * Z_290_0_1
   + 0.0597882400111866 Z_59_0_1 * Z_9_0_1
   + 0.2813033061748659 Z_59_0_1 * Z_150_0_1
   + 0.0761500937782859 Z_59_0_2 * Z_266_0_2
   + 0.1264861180156079 Z_59_0_2 * Z_541_0_2
   + 0.0895868090804778 Z_59_0_2 * Z_164_0_2
   + 0.1902905515303155 Z_59_0_2 * Z_290_0_2
   + 0.0597882400111866 Z_59_0_2 * Z_9_0_2
   + 0.2813033061748659 Z_59_0_2 * Z_150_0_2
   + 0.0761500937782859 Z_59_0_3 * Z_266_0_3
   + 0.1264861180156079 Z_59_0_3 * Z_541_0_3
   + 0.0895868090804778 Z_59_0_3 * Z_164_0_3
   + 0.1902905515303155 Z_59_0_3 * Z_290_0_3
   + 0.0597882400111866 Z_59_0_3 * Z_9_0_3
   + 0.2813033061748659 Z_59_0_3 * Z_150_0_3
   + 0.2485198777982338 Z_266_0_0 * Z_541_0_0
   + 0.1141735157941506 Z_266_0_0 * Z_164_0_0
   + 8.0539119000657441e-04 Z_266_0_0 * Z_232_0_0
   + 0.0853156460918906 Z_266_0_0 * Z_290_0_0
   + 0.0538158181226712 Z_266_0_0 * Z_9_0_0
   + 0.2653702609881414 Z_266_0_0 * Z_150_0_0
   + 0.2485198777982338 Z_266_0_1 * Z_541_0_1
   + 0.1141735157941506 Z_266_0_1 * Z_164_0_1
   + 8.0539119000657441e-04 Z_266_0_1 * Z_232_0_1
   + 0.0853156460918906 Z_266_0_1 * Z_290_0_1
   + 0.0538158181226712 Z_266_0_1 * Z_9_0_1
   + 0.2653702609881414 Z_266_0_1 * Z_150_0_1
   + 0.2485198777982338 Z_266_0_2 * Z_541_0_2
   + 0.1141735157941506 Z_266_0_2 * Z_164_0_2
   + 8.0539119000657441e-04 Z_266_0_2 * Z_232_0_2
   + 0.0853156460918906 Z_266_0_2 * Z_290_0_2
   + 0.0538158181226712 Z_266_0_2 * Z_9_0_2
   + 0.2653702609881414 Z_266_0_2 * Z_150_0_2
   + 0.2485198777982338 Z_266_0_3 * Z_541_0_3
   + 0.1141735157941506 Z_266_0_3 * Z_164_0_3
   + 8.0539119000657441e-04 Z_266_0_3 * Z_232_0_3
   + 0.0853156460918906 Z_266_0_3 * Z_290_0_3
   + 0.0538158181226712 Z_266_0_3 * Z_9_0_3
   + 0.2653702609881414 Z_266_0_3 * Z_150_0_3
   + 0.1141735157941506 Z_541_0_0 * Z_164_0_0
   + 0.175844533396231 Z_541_0_0 * Z_290_0_0
   + 0.0729174400570382 Z_541_0_0 * Z_9_0_0
   + 0.2653702609881414 Z_541_0_0 * Z_150_0_0
   + 0.1141735157941506 Z_541_0_1 * Z_164_0_1
   + 0.175844533396231 Z_541_0_1 * Z_290_0_1
   + 0.0729174400570382 Z_541_0_1 * Z_9_0_1
   + 0.2653702609881414 Z_541_0_1 * Z_150_0_1
   + 0.1141735157941506 Z_541_0_2 * Z_164_0_2
   + 0.175844533396231 Z_541_0_2 * Z_290_0_2
   + 0.0729174400570382 Z_541_0_2 * Z_9_0_2
   + 0.2653702609881414 Z_541_0_2 * Z_150_0_2
   + 0.1141735157941506 Z_541_0_3 * Z_164_0_3
   + 0.175844533396231 Z_541_0_3 * Z_290_0_3
   + 0.0729174400570382 Z_541_0_3 * Z_9_0_3
   + 0.2653702609881414 Z_541_0_3 * Z_150_0_3 + 0.4 Z_164_0_0 * Z_232_0_0
   + 0.1864334988820111 Z_164_0_0 * Z_290_0_0
   + 0.0776459704163866 Z_164_0_0 * Z_9_0_0
   + 0.1834493754887392 Z_164_0_0 * Z_150_0_0 + 0.4 Z_164_0_1 * Z_232_0_1
   + 0.1864334988820111 Z_164_0_1 * Z_290_0_1
   + 0.0776459704163866 Z_164_0_1 * Z_9_0_1
   + 0.1834493754887392 Z_164_0_1 * Z_150_0_1 + 0.4 Z_164_0_2 * Z_232_0_2
   + 0.1864334988820111 Z_164_0_2 * Z_290_0_2
   + 0.0776459704163866 Z_164_0_2 * Z_9_0_2
   + 0.1834493754887392 Z_164_0_2 * Z_150_0_2 + 0.4 Z_164_0_3 * Z_232_0_3
   + 0.1864334988820111 Z_164_0_3 * Z_290_0_3
   + 0.0776459704163866 Z_164_0_3 * Z_9_0_3
   + 0.1834493754887392 Z_164_0_3 * Z_150_0_3 + 0.4 Z_232_0_0 * Z_290_0_0
   + 0.4 Z_232_0_1 * Z_290_0_1 + 0.4 Z_232_0_2 * Z_290_0_2
   + 0.4 Z_232_0_3 * Z_290_0_3 + 0.0931345956483538 Z_290_0_0 * Z_9_0_0
   + 0.1832914774964735 Z_290_0_0 * Z_150_0_0
   + 0.0931345956483538 Z_290_0_1 * Z_9_0_1
   + 0.1832914774964735 Z_290_0_1 * Z_150_0_1
   + 0.0931345956483538 Z_290_0_2 * Z_9_0_2
   + 0.1832914774964735 Z_290_0_2 * Z_150_0_2
   + 0.0931345956483538 Z_290_0_3 * Z_9_0_3
   + 0.1832914774964735 Z_290_0_3 * Z_150_0_3
   + 0.0614221074439204 Z_9_0_0 * Z_150_0_0
   + 0.0614221074439204 Z_9_0_1 * Z_150_0_1
   + 0.0614221074439204 Z_9_0_2 * Z_150_0_2
   + 0.0614221074439204 Z_9_0_3 * Z_150_0_3 ] / 2 
Subject To
 constraint1_941: Z_94_1_0 + Z_94_1_1 + Z_94_1_2 + Z_94_1_3 <= 1
 constraint1_940: Z_94_0_0 + Z_94_0_1 + Z_94_0_2 + Z_94_0_3 <= 1
 constraint1_3300: Z_330_0_0 + Z_330_0_1 + Z_330_0_2 + Z_330_0_3 <= 1
 constraint1_590: Z_59_0_0 + Z_59_0_1 + Z_59_0_2 + Z_59_0_3 <= 1
 constraint1_2660: Z_266_0_0 + Z_266_0_1 + Z_266_0_2 + Z_266_0_3 <= 1
 constraint1_5410: Z_541_0_0 + Z_541_0_1 + Z_541_0_2 + Z_541_0_3 <= 1
 constraint1_1640: Z_164_0_0 + Z_164_0_1 + Z_164_0_2 + Z_164_0_3 <= 1
 constraint1_2320: Z_232_0_0 + Z_232_0_1 + Z_232_0_2 + Z_232_0_3 <= 1
 constraint1_2900: Z_290_0_0 + Z_290_0_1 + Z_290_0_2 + Z_290_0_3 <= 1
 constraint1_6040: Z_604_0_0 + Z_604_0_1 + Z_604_0_2 + Z_604_0_3 <= 1
 constraint1_90: Z_9_0_0 + Z_9_0_1 + Z_9_0_2 + Z_9_0_3 <= 1
 constraint1_1500: Z_150_0_0 + Z_150_0_1 + Z_150_0_2 + Z_150_0_3 <= 1
 constraint2_940: Z_94_1_0 + Z_94_0_0 <= 1
 constraint2_941: Z_94_1_1 + Z_94_0_1 <= 1
 constraint2_942: Z_94_1_2 + Z_94_0_2 <= 1
 constraint2_943: Z_94_1_3 + Z_94_0_3 <= 1
 constraint2_3300: Z_330_0_0 <= 1
 constraint2_3301: Z_330_0_1 <= 1
 constraint2_3302: Z_330_0_2 <= 1
 constraint2_3303: Z_330_0_3 <= 1
 constraint2_590: Z_59_0_0 <= 1
 constraint2_591: Z_59_0_1 <= 1
 constraint2_592: Z_59_0_2 <= 1
 constraint2_593: Z_59_0_3 <= 1
 constraint2_2660: Z_266_0_0 <= 1
 constraint2_2661: Z_266_0_1 <= 1
 constraint2_2662: Z_266_0_2 <= 1
 constraint2_2663: Z_266_0_3 <= 1
 constraint2_5410: Z_541_0_0 <= 1
 constraint2_5411: Z_541_0_1 <= 1
 constraint2_5412: Z_541_0_2 <= 1
 constraint2_5413: Z_541_0_3 <= 1
 constraint2_1640: Z_164_0_0 <= 1
 constraint2_1641: Z_164_0_1 <= 1
 constraint2_1642: Z_164_0_2 <= 1
 constraint2_1643: Z_164_0_3 <= 1
 constraint2_2320: Z_232_0_0 <= 1
 constraint2_2321: Z_232_0_1 <= 1
 constraint2_2322: Z_232_0_2 <= 1
 constraint2_2323: Z_232_0_3 <= 1
 constraint2_2900: Z_290_0_0 <= 1
 constraint2_2901: Z_290_0_1 <= 1
 constraint2_2902: Z_290_0_2 <= 1
 constraint2_2903: Z_290_0_3 <= 1
 constraint2_6040: Z_604_0_0 <= 1
 constraint2_6041: Z_604_0_1 <= 1
 constraint2_6042: Z_604_0_2 <= 1
 constraint2_6043: Z_604_0_3 <= 1
 constraint2_90: Z_9_0_0 <= 1
 constraint2_91: Z_9_0_1 <= 1
 constraint2_92: Z_9_0_2 <= 1
 constraint2_93: Z_9_0_3 <= 1
 constraint2_1500: Z_150_0_0 <= 1
 constraint2_1501: Z_150_0_1 <= 1
 constraint2_1502: Z_150_0_2 <= 1
 constraint2_1503: Z_150_0_3 <= 1
Bounds
Binaries
 Z_94_1_0 Z_94_1_1 Z_94_1_2 Z_94_1_3 Z_94_0_0 Z_94_0_1 Z_94_0_2 Z_94_0_3
 Z_330_0_0 Z_330_0_1 Z_330_0_2 Z_330_0_3 Z_59_0_0 Z_59_0_1 Z_59_0_2
 Z_59_0_3 Z_266_0_0 Z_266_0_1 Z_266_0_2 Z_266_0_3 Z_541_0_0 Z_541_0_1
 Z_541_0_2 Z_541_0_3 Z_164_0_0 Z_164_0_1 Z_164_0_2 Z_164_0_3 Z_232_0_0
 Z_232_0_1 Z_232_0_2 Z_232_0_3 Z_290_0_0 Z_290_0_1 Z_290_0_2 Z_290_0_3
 Z_604_0_0 Z_604_0_1 Z_604_0_2 Z_604_0_3 Z_9_0_0 Z_9_0_1 Z_9_0_2 Z_9_0_3
 Z_150_0_0 Z_150_0_1 Z_150_0_2 Z_150_0_3
End
